1 16432.0 16432.0
2 17023.0 17023.0
3 17270.0 17270.0
4 17926.0 17926.0
5 17926.0 17926.0
6 18230.0 18230.0
7 18230.0 18230.0
8 18238.0 18238.0
9 18238.0 18238.0
10 18238.0 18238.0
11 18238.0 18238.0
12 18296.0 18296.0
13 18296.0 18296.0
14 18296.0 18296.0
15 18296.0 18296.0
16 18296.0 18296.0
17 18296.0 18296.0
18 18296.0 18296.0
19 18296.0 18296.0
20 18296.0 18296.0
21 18296.0 17800.0
22 18296.0 18296.0
23 18296.0 18296.0
24 18296.0 18296.0
25 18296.0 18296.0
26 18296.0 18296.0
27 18296.0 18296.0
28 18296.0 18296.0
29 18296.0 18296.0
30 18296.0 18296.0
31 18296.0 18296.0
32 18296.0 18296.0
33 18296.0 18296.0
34 18296.0 18296.0
35 18296.0 18296.0
36 18296.0 18296.0
37 18296.0 18296.0
38 18296.0 18296.0
39 18296.0 17935.0
40 18296.0 18296.0
41 18296.0 18296.0
42 18296.0 18296.0
43 18296.0 18296.0
44 18296.0 17973.0
45 18296.0 18162.0
46 18296.0 18296.0
47 18296.0 18296.0
48 18296.0 18092.0
49 18296.0 18296.0
50 18296.0 18296.0
51 18296.0 18296.0
52 18296.0 18296.0
